NAME: CMT5_9
TYPE: CVRP
COMMENT: 1291.29 - Cluster Nr.9
DIMENSION: 11
CAPACITY: 200
EDGE_WEIGHT_TYPE: EUC_2D
NODE_COORD_TYPE: TWOD_COORDS
NODE_COORD_SECTION: 
8 35 35
10 30 50
6 21 45
7 24 58
9 26 52
3 30 60
5 21 47
1 30 60
2 31 52
11 26 59
4 25 55
DEPOT_SECTION: 
8
-1
DEMAND_SECTION: 
3 16
8 0
10 33
5 15
7 19
1 16
6 11
4 17
2 27
9 9
11 29
EOF
